data/solutions/recovery/degenerate/intermediate/flexible/degenerate_intermediate_instance21/10.sol
Elapsed time: 100.15
Upper bound: 28225984.0
Planning weighted value: 1.08247458481e+11
C[0]=28225984.0
C[1]=28202120.0
C[2]=28197484.0
C[3]=28189337.0
C[4]=28120252.0
C[5]=28094587.0
C[6]=28038921.0
C[7]=28022388.0
C[8]=27999040.0
C[9]=27908433.0
C[10]=0.0
C[11]=0.0
y[0]=1
y[1]=9
y[2]=6
y[3]=1
y[4]=1
y[5]=4
y[6]=1
y[7]=1
y[8]=1
y[9]=3
y[10]=1
y[11]=1
y[12]=1
y[13]=8
y[14]=8
y[15]=6
y[16]=1
y[17]=1
y[18]=7
y[19]=2
y[20]=3
y[21]=2
y[22]=5
y[23]=1
y[24]=5
y[25]=8
y[26]=2
y[27]=7
y[28]=3
y[29]=0
y[30]=2
y[31]=4
y[32]=8
y[33]=2
y[34]=6
y[35]=9
y[36]=7
y[37]=3
y[38]=1
y[39]=7
y[40]=1
y[41]=1
y[42]=7
y[43]=6
y[44]=4
y[45]=0
y[46]=1
y[47]=4
y[48]=9
y[49]=8
y[50]=5
y[51]=6
y[52]=1
y[53]=8
y[54]=3
y[55]=1
y[56]=0
y[57]=0
y[58]=8
y[59]=4
y[60]=5
y[61]=3
y[62]=2
y[63]=7
y[64]=9
