data/solutions/recovery/degenerate/intermediate/flexible/degenerate_intermediate_instance21/10.log

Log started (V12.6.3.0) Sat Apr 21 12:00:00 2018

New value for default parallel thread count: 1

Problem '/tmp/tmpelKc_S.pyomo.lp' read.
Read time = 0.01 sec. (0.59 ticks)

Problem name         : /tmp/tmpelKc_S.pyomo.lp
Objective sense      : Minimize
Variables            :     794  [Nneg: 1,  Binary: 780,  General Integer: 13]
Objective nonzeros   :       1
Linear constraints   :     157  [Less: 77,  Equal: 80]
  Nonzeros           :   42446
  RHS nonzeros       :     131

Variables            : Min LB: 0.000000         Max UB: 1.000000       
Objective nonzeros   : Min   : 1.000000         Max   : 1.000000       
Linear constraints   :
  Nonzeros           : Min   : 1.000000         Max   : 8298339.       
  RHS nonzeros       : Min   : 1.000000         Max   : 7.000000       
Tried aggregator 2 times.
MIP Presolve eliminated 71 rows and 160 columns.
Aggregator did 3 substitutions.
Reduced MIP has 83 rows, 631 columns, and 1756 nonzeros.
Reduced MIP has 620 binaries, 11 generals, 0 SOSs, and 0 indicators.
Presolve time = 0.01 sec. (7.57 ticks)
Found incumbent of value 9.4640058e+07 after 0.01 sec. (8.70 ticks)
Probing time = 0.00 sec. (1.74 ticks)
Cover probing fixed 0 vars, tightened 21 bounds.
Tried aggregator 2 times.
Aggregator did 10 substitutions.
Reduced MIP has 73 rows, 621 columns, and 1736 nonzeros.
Reduced MIP has 620 binaries, 1 generals, 0 SOSs, and 0 indicators.
Presolve time = 0.00 sec. (1.62 ticks)
Probing time = 0.00 sec. (0.96 ticks)
Cover probing fixed 0 vars, tightened 6 bounds.
Clique table members: 62.
MIP emphasis: balance optimality and feasibility.
MIP search method: dynamic search.
Parallel mode: none, using 1 thread.
Root relaxation solution time = 0.00 sec. (0.54 ticks)

        Nodes                                         Cuts/
   Node  Left     Objective  IInf  Best Integer    Best Bound    ItCnt     Gap

*     0+    0                       9.46401e+07        0.0000           100.00%
      0     0   2.80999e+07    15   9.46401e+07   2.80999e+07       19   70.31%
*     0+    0                       3.48122e+07   2.80999e+07            19.28%
      0     0   2.80999e+07    24   3.48122e+07     Fract: 10       36   19.28%
*     0+    0                       3.35409e+07   2.80999e+07            16.22%
      0     0   2.80999e+07    24   3.35409e+07       Cuts: 2       58   16.22%
*     0+    0                       3.22143e+07   2.80999e+07            12.77%
*     0+    0                       3.13385e+07   2.80999e+07            10.33%
*     0+    0                       3.09419e+07   2.80999e+07             9.19%
      0     2   2.80999e+07    18   3.09419e+07   2.80999e+07       58    9.19%
Elapsed time = 0.04 sec. (43.32 ticks, tree = 0.01 MB, solutions = 5)
*    20+   20                       3.09327e+07   2.80999e+07             9.16%
*    30+   30                       3.08875e+07   2.80999e+07             9.03%
*    90+   62                       3.07340e+07   2.80999e+07             8.57%
*   100+   67                       3.03099e+07   2.80999e+07             7.29%
*   200+  143                       2.98703e+07   2.80999e+07             5.93%
*   913   574      integral     0   2.96017e+07   2.80999e+07     3647    5.07%
*  1000+  544                       2.94883e+07   2.80999e+07             4.71%
*  1000+  516                       2.91860e+07   2.80999e+07             3.72%
   1341   717   2.80999e+07    25   2.91860e+07   2.80999e+07     5747    3.72%
   1342   718   2.80999e+07    22   2.91860e+07   2.80999e+07     5758    3.72%
   1343   719   2.80999e+07    18   2.91860e+07   2.80999e+07     5765    3.72%
   1344   720   2.80999e+07    21   2.91860e+07   2.80999e+07     5772    3.72%
   1345   721   2.80999e+07    24   2.91860e+07   2.80999e+07     5790    3.72%
   1346   722   2.80999e+07    23   2.91860e+07   2.80999e+07     5792    3.72%
   1347   723   2.80999e+07    20   2.91860e+07   2.80999e+07     5799    3.72%
   1348   724   2.80999e+07    21   2.91860e+07   2.80999e+07     5821    3.72%
   1349   725   2.80999e+07    23   2.91860e+07   2.80999e+07     5831    3.72%
*  1611+  574                       2.90483e+07   2.80999e+07             3.27%
*  1711+  381                       2.89709e+07   2.80999e+07             3.01%
*  2011+  344                       2.89497e+07   2.80999e+07             2.94%
*  2011+  306                       2.88765e+07   2.80999e+07             2.69%
*  2011+  281                       2.88204e+07   2.80999e+07             2.50%
   2265   391   2.86821e+07    26   2.88204e+07   2.80999e+07    11910    2.50%
Elapsed time = 0.78 sec. (997.11 ticks, tree = 0.20 MB, solutions = 18)
*  2511+  496                       2.87485e+07   2.80999e+07             2.26%
*  2711+  613                       2.86874e+07   2.80999e+07             2.05%
   2936   800   2.84743e+07    15   2.86874e+07   2.80999e+07    16060    2.05%
   2937   800   2.84769e+07    15   2.86874e+07   2.80999e+07    16061    2.05%
   2938   800   2.84769e+07    15   2.86874e+07   2.80999e+07    16062    2.05%
   2939   800   2.84769e+07    15   2.86874e+07   2.80999e+07    16063    2.05%
   2940   800   2.84831e+07    15   2.86874e+07   2.80999e+07    16064    2.05%
   2941   800   2.84831e+07    17   2.86874e+07   2.80999e+07    16066    2.05%
   2942   800   2.84926e+07    16   2.86874e+07   2.80999e+07    16068    2.05%
   2943   800   2.84926e+07    17   2.86874e+07   2.80999e+07    16069    2.05%
   2944   801   2.84929e+07    17   2.86874e+07   2.80999e+07    16071    2.05%
   2945   802   2.84929e+07    17   2.86874e+07   2.80999e+07    16072    2.05%
Elapsed time = 1.54 sec. (1953.27 ticks, tree = 0.41 MB, solutions = 20)
   6431  3669   2.83136e+07    26   2.86874e+07   2.80999e+07    33007    2.05%
   6432  3670   2.85193e+07    24   2.86874e+07   2.80999e+07    33022    2.05%
   6433  3669        cutoff         2.86874e+07   2.80999e+07    33029    2.05%
   6434  3668        cutoff         2.86874e+07   2.80999e+07    33031    2.05%
   6435  3668   2.85564e+07    22   2.86874e+07   2.80999e+07    33119    2.05%
   6436  3667        cutoff         2.86874e+07   2.80999e+07    33121    2.05%
   6437  3668   2.80999e+07    22   2.86874e+07   2.80999e+07    33163    2.05%
   6438  3669   2.80999e+07    24   2.86874e+07   2.80999e+07    33189    2.05%
   6439  3670   2.81240e+07    21   2.86874e+07   2.80999e+07    33264    2.05%
   6440  3671   2.80999e+07    25   2.86874e+07   2.80999e+07    33270    2.05%
Elapsed time = 2.26 sec. (2918.15 ticks, tree = 1.91 MB, solutions = 20)
   9533  6169   2.83489e+07    16   2.86874e+07   2.80999e+07    55429    2.05%
   9534  6170   2.83680e+07    17   2.86874e+07   2.80999e+07    55432    2.05%
   9535  6169        cutoff         2.86874e+07   2.80999e+07    55447    2.05%
   9536  6168        cutoff         2.86874e+07   2.80999e+07    55460    2.05%
   9537  6167        cutoff         2.86874e+07   2.80999e+07    55472    2.05%
   9538  6168   2.80999e+07    22   2.86874e+07   2.80999e+07    55497    2.05%
   9539  6169   2.80999e+07    20   2.86874e+07   2.80999e+07    55501    2.05%
   9540  6170   2.80999e+07    20   2.86874e+07   2.80999e+07    55504    2.05%
   9541  6171   2.80999e+07    20   2.86874e+07   2.80999e+07    55508    2.05%
   9542  6172   2.80999e+07    20   2.86874e+07   2.80999e+07    55509    2.05%
Elapsed time = 2.95 sec. (3879.93 ticks, tree = 3.21 MB, solutions = 20)
* 11571+ 7376                       2.86156e+07   2.80999e+07             1.80%
* 11571+ 7141                       2.85829e+07   2.80999e+07             1.69%
* 11571+ 6648                       2.84988e+07   2.80999e+07             1.40%
* 11571+ 6648                       2.84988e+07   2.80999e+07             1.40%
  11571  6650   2.80999e+07    24   2.84988e+07   2.80999e+07    72803    1.40%
  11572  6651   2.80999e+07    20   2.84988e+07   2.80999e+07    72823    1.40%
  11573  6652   2.80999e+07    24   2.84988e+07   2.80999e+07    72856    1.40%
  11574  6653   2.80999e+07    25   2.84988e+07   2.80999e+07    72859    1.40%
  11575  6654   2.80999e+07    23   2.84988e+07   2.80999e+07    72862    1.40%
  11576  6655   2.80999e+07    23   2.84988e+07   2.80999e+07    72863    1.40%
  11577  6656   2.80999e+07    23   2.84988e+07   2.80999e+07    72864    1.40%
  11578  6657   2.80999e+07    31   2.84988e+07   2.80999e+07    72887    1.40%
  11579  6658   2.80999e+07    28   2.84988e+07   2.80999e+07    72889    1.40%
  11580  6659   2.80999e+07    27   2.84988e+07   2.80999e+07    72890    1.40%
Elapsed time = 4.01 sec. (5102.60 ticks, tree = 3.41 MB, solutions = 24)
  13860  8359   2.81321e+07    28   2.84988e+07   2.80999e+07    94948    1.40%
  13861  8360   2.81321e+07    29   2.84988e+07   2.80999e+07    94951    1.40%
  13862  8361   2.81329e+07    27   2.84988e+07   2.80999e+07    94957    1.40%
  13863  8362   2.81332e+07    27   2.84988e+07   2.80999e+07    94962    1.40%
  13864  8361        cutoff         2.84988e+07   2.80999e+07    94985    1.40%
  13865  8362   2.81435e+07    26   2.84988e+07   2.80999e+07    94991    1.40%
  13866  8363   2.81435e+07    26   2.84988e+07   2.80999e+07    94993    1.40%
  13867  8364   2.81435e+07    26   2.84988e+07   2.80999e+07    94995    1.40%
  13868  8365   2.81571e+07    30   2.84988e+07   2.80999e+07    95010    1.40%
  13869  8366   2.81573e+07    30   2.84988e+07   2.80999e+07    95011    1.40%
Elapsed time = 4.66 sec. (6058.37 ticks, tree = 4.44 MB, solutions = 24)
  15734  9797   2.80999e+07    21   2.84988e+07   2.80999e+07   118347    1.40%
  15735  9798   2.80999e+07    20   2.84988e+07   2.80999e+07   118349    1.40%
  15736  9799   2.80999e+07    21   2.84988e+07   2.80999e+07   118352    1.40%
  15737  9800   2.80999e+07    24   2.84988e+07   2.80999e+07   118377    1.40%
  15738  9801   2.80999e+07    24   2.84988e+07   2.80999e+07   118413    1.40%
  15739  9802   2.80999e+07    27   2.84988e+07   2.80999e+07   118435    1.40%
  15740  9803   2.81387e+07    31   2.84988e+07   2.80999e+07   118535    1.40%
  15741  9803   2.80999e+07    23   2.84988e+07   2.80999e+07   118536    1.40%
  15742  9804   2.80999e+07    20   2.84988e+07   2.80999e+07   118538    1.40%
  15743  9805   2.81169e+07    27   2.84988e+07   2.80999e+07   118652    1.40%
Elapsed time = 5.32 sec. (7021.03 ticks, tree = 5.12 MB, solutions = 24)
  17468 11130   2.80999e+07    22   2.84988e+07   2.80999e+07   140571    1.40%
  17469 11131   2.80999e+07    24   2.84988e+07   2.80999e+07   140581    1.40%
  17470 11132   2.81100e+07    29   2.84988e+07   2.80999e+07   140613    1.40%
  17471 11133   2.81100e+07    26   2.84988e+07   2.80999e+07   140616    1.40%
  17472 11134   2.81100e+07    28   2.84988e+07   2.80999e+07   140621    1.40%
  17473 11135   2.81100e+07    28   2.84988e+07   2.80999e+07   140624    1.40%
  17474 11136   2.81101e+07    23   2.84988e+07   2.80999e+07   140628    1.40%
  17475 11137   2.81101e+07    22   2.84988e+07   2.80999e+07   140629    1.40%
  17476 11138   2.81101e+07    22   2.84988e+07   2.80999e+07   140630    1.40%
  17477 11139   2.81101e+07    21   2.84988e+07   2.80999e+07   140632    1.40%
Elapsed time = 5.95 sec. (7977.27 ticks, tree = 5.75 MB, solutions = 24)
  19305 12609   2.80999e+07    33   2.84988e+07   2.80999e+07   163994    1.40%
  19306 12610   2.80999e+07    33   2.84988e+07   2.80999e+07   163999    1.40%
  19307 12611   2.80999e+07    32   2.84988e+07   2.80999e+07   164008    1.40%
  19308 12612   2.80999e+07    29   2.84988e+07   2.80999e+07   164038    1.40%
  19309 12613   2.80999e+07    28   2.84988e+07   2.80999e+07   164064    1.40%
  19310 12614   2.80999e+07    27   2.84988e+07   2.80999e+07   164069    1.40%
  19311 12615   2.80999e+07    26   2.84988e+07   2.80999e+07   164085    1.40%
  19312 12616   2.80999e+07    29   2.84988e+07   2.80999e+07   164104    1.40%
  19313 12617   2.80999e+07    29   2.84988e+07   2.80999e+07   164106    1.40%
  19314 12618   2.80999e+07    24   2.84988e+07   2.80999e+07   164137    1.40%
Elapsed time = 6.59 sec. (8938.17 ticks, tree = 6.45 MB, solutions = 24)
  21266 14176   2.84018e+07    10   2.84988e+07   2.80999e+07   188397    1.40%
  21267 14177   2.84018e+07    15   2.84988e+07   2.80999e+07   188405    1.40%
  21268 14178   2.84018e+07    14   2.84988e+07   2.80999e+07   188408    1.40%
  21269 14179   2.84018e+07    18   2.84988e+07   2.80999e+07   188410    1.40%
  21270 14180   2.84018e+07    18   2.84988e+07   2.80999e+07   188416    1.40%
  21271 14181   2.84018e+07    18   2.84988e+07   2.80999e+07   188417    1.40%
  21272 14182   2.84018e+07    18   2.84988e+07   2.80999e+07   188418    1.40%
  21273 14183   2.84018e+07    18   2.84988e+07   2.80999e+07   188419    1.40%
  21274 14184   2.84018e+07    15   2.84988e+07   2.80999e+07   188427    1.40%
  25929 17812   2.82402e+07    23   2.84988e+07   2.80999e+07   252674    1.40%
Elapsed time = 9.17 sec. (12755.76 ticks, tree = 9.48 MB, solutions = 24)
  30295 21287   2.80999e+07    43   2.84988e+07   2.80999e+07   335054    1.40%
  30296 21288   2.80999e+07    42   2.84988e+07   2.80999e+07   335056    1.40%
  30297 21289   2.80999e+07    42   2.84988e+07   2.80999e+07   335093    1.40%
  30298 21290   2.80999e+07    41   2.84988e+07   2.80999e+07   335102    1.40%
  30299 21291   2.80999e+07    41   2.84988e+07   2.80999e+07   335103    1.40%
  30300 21292   2.80999e+07    37   2.84988e+07   2.80999e+07   335131    1.40%
  30301 21293   2.80999e+07    38   2.84988e+07   2.80999e+07   335141    1.40%
  30302 21294   2.80999e+07    39   2.84988e+07   2.80999e+07   335160    1.40%
  30303 21295   2.80999e+07    38   2.84988e+07   2.80999e+07   335164    1.40%
  30304 21296   2.80999e+07    41   2.84988e+07   2.80999e+07   335165    1.40%
Elapsed time = 11.70 sec. (16575.51 ticks, tree = 11.20 MB, solutions = 24)
* 33311+23424                       2.84647e+07   2.80999e+07             1.28%
* 33311+21613                       2.83780e+07   2.80999e+07             0.98%
  35017 22995   2.80999e+07    32   2.83780e+07   2.80999e+07   422989    0.98%
  35018 22996   2.80999e+07    33   2.83780e+07   2.80999e+07   422996    0.98%
  35019 22997   2.80999e+07    31   2.83780e+07   2.80999e+07   423012    0.98%
  35020 22998   2.80999e+07    33   2.83780e+07   2.80999e+07   423013    0.98%
  35021 22999   2.80999e+07    30   2.83780e+07   2.80999e+07   423014    0.98%
  35022 23000   2.80999e+07    30   2.83780e+07   2.80999e+07   423044    0.98%
  35023 23001   2.80999e+07    35   2.83780e+07   2.80999e+07   423131    0.98%
  35024 23002   2.80999e+07    38   2.83780e+07   2.80999e+07   423138    0.98%
  35025 23003   2.80999e+07    38   2.83780e+07   2.80999e+07   423164    0.98%
  35026 23004   2.80999e+07    38   2.83780e+07   2.80999e+07   423172    0.98%
Elapsed time = 14.26 sec. (20396.06 ticks, tree = 11.99 MB, solutions = 26)
  40035 27000   2.80999e+07    32   2.83780e+07   2.80999e+07   514154    0.98%
  40036 27001   2.80999e+07    33   2.83780e+07   2.80999e+07   514157    0.98%
  40037 27002   2.80999e+07    31   2.83780e+07   2.80999e+07   514158    0.98%
  40038 27003   2.80999e+07    28   2.83780e+07   2.80999e+07   514159    0.98%
  40039 27004   2.80999e+07    23   2.83780e+07   2.80999e+07   514160    0.98%
  40040 27004   2.81062e+07    32   2.83780e+07   2.80999e+07   514212    0.98%
  40041 27004   2.82263e+07    31   2.83780e+07   2.80999e+07   514375    0.98%
  40042 27005   2.82273e+07    31   2.83780e+07   2.80999e+07   514380    0.98%
  40043 27006   2.82282e+07    32   2.83780e+07   2.80999e+07   514386    0.98%
  40044 27007   2.82286e+07    31   2.83780e+07   2.80999e+07   514388    0.98%
Elapsed time = 16.82 sec. (24221.18 ticks, tree = 13.99 MB, solutions = 26)
* 41511+27590                       2.83560e+07   2.80999e+07             0.90%
  44421 30005   2.80999e+07    34   2.83560e+07   2.80999e+07   601745    0.90%
  44422 30006   2.80999e+07    35   2.83560e+07   2.80999e+07   601760    0.90%
  44423 30007   2.80999e+07    33   2.83560e+07   2.80999e+07   601763    0.90%
  44424 30008   2.80999e+07    31   2.83560e+07   2.80999e+07   601886    0.90%
  44425 30009   2.80999e+07    32   2.83560e+07   2.80999e+07   601894    0.90%
  44426 30010   2.80999e+07    29   2.83560e+07   2.80999e+07   601901    0.90%
  44427 30011   2.80999e+07    29   2.83560e+07   2.80999e+07   601913    0.90%
  44428 30012   2.80999e+07    28   2.83560e+07   2.80999e+07   601917    0.90%
  44429 30013   2.80999e+07    36   2.83560e+07   2.80999e+07   601941    0.90%
  44430 30014   2.80999e+07    30   2.83560e+07   2.80999e+07   601984    0.90%
Elapsed time = 19.35 sec. (28044.38 ticks, tree = 15.47 MB, solutions = 27)
  49310 34076   2.81065e+07    38   2.83560e+07   2.80999e+07   694333    0.90%
  49311 34077   2.81065e+07    38   2.83560e+07   2.80999e+07   694335    0.90%
  49312 34078   2.81066e+07    38   2.83560e+07   2.80999e+07   694336    0.90%
  49313 34079   2.81066e+07    36   2.83560e+07   2.80999e+07   694337    0.90%
  49314 34080   2.81066e+07    36   2.83560e+07   2.80999e+07   694342    0.90%
  49315 34081   2.81212e+07    37   2.83560e+07   2.80999e+07   694357    0.90%
  49316 34082   2.81213e+07    38   2.83560e+07   2.80999e+07   694358    0.90%
  49317 34083   2.81214e+07    36   2.83560e+07   2.80999e+07   694359    0.90%
  49318 34084   2.81222e+07    34   2.83560e+07   2.80999e+07   694361    0.90%
  49319 34085   2.81232e+07    30   2.83560e+07   2.80999e+07   694364    0.90%
Elapsed time = 21.85 sec. (31862.71 ticks, tree = 18.39 MB, solutions = 27)
  54279 38037   2.81468e+07    31   2.83560e+07   2.80999e+07   779470    0.90%
  54280 38038   2.82093e+07    24   2.83560e+07   2.80999e+07   779490    0.90%
  54281 38039   2.82097e+07    24   2.83560e+07   2.80999e+07   779491    0.90%
  54282 38039   2.82152e+07    22   2.83560e+07   2.80999e+07   779495    0.90%
  54283 38039   2.82152e+07    22   2.83560e+07   2.80999e+07   779497    0.90%
  54284 38040   2.82153e+07    22   2.83560e+07   2.80999e+07   779498    0.90%
  54285 38041   2.82497e+07    23   2.83560e+07   2.80999e+07   779505    0.90%
  54286 38040        cutoff         2.83560e+07   2.80999e+07   779512    0.90%
  54287 38039        cutoff         2.83560e+07   2.80999e+07   779516    0.90%
  54288 38040   2.80999e+07    25   2.83560e+07   2.80999e+07   779557    0.90%
Elapsed time = 24.58 sec. (35683.30 ticks, tree = 20.33 MB, solutions = 27)
  59031 41862   2.81819e+07    31   2.83560e+07   2.80999e+07   861788    0.90%
  59032 41863   2.81824e+07    31   2.83560e+07   2.80999e+07   861790    0.90%
  59033 41864   2.81824e+07    32   2.83560e+07   2.80999e+07   861792    0.90%
  59034 41865   2.81828e+07    31   2.83560e+07   2.80999e+07   861793    0.90%
  59035 41866   2.81831e+07    31   2.83560e+07   2.80999e+07   861796    0.90%
  59036 41867   2.81834e+07    31   2.83560e+07   2.80999e+07   861797    0.90%
  59037 41868   2.81834e+07    33   2.83560e+07   2.80999e+07   861798    0.90%
  59038 41869   2.81834e+07    31   2.83560e+07   2.80999e+07   861799    0.90%
  59039 41870   2.81835e+07    32   2.83560e+07   2.80999e+07   861800    0.90%
  59040 41871   2.81836e+07    33   2.83560e+07   2.80999e+07   861802    0.90%
Elapsed time = 28.10 sec. (39499.65 ticks, tree = 22.23 MB, solutions = 27)
  63510 45475   2.80999e+07    33   2.83560e+07   2.80999e+07   946282    0.90%
  63511 45476   2.80999e+07    33   2.83560e+07   2.80999e+07   946300    0.90%
  63512 45477   2.80999e+07    33   2.83560e+07   2.80999e+07   946328    0.90%
  63513 45478   2.80999e+07    33   2.83560e+07   2.80999e+07   946329    0.90%
  63514 45479   2.80999e+07    32   2.83560e+07   2.80999e+07   946332    0.90%
  63515 45480   2.80999e+07    34   2.83560e+07   2.80999e+07   946352    0.90%
  63516 45481   2.80999e+07    32   2.83560e+07   2.80999e+07   946357    0.90%
  63517 45482   2.81548e+07    30   2.83560e+07   2.80999e+07   946476    0.90%
  63518 45483   2.81577e+07    34   2.83560e+07   2.80999e+07   946481    0.90%
  63519 45484   2.81591e+07    32   2.83560e+07   2.80999e+07   946487    0.90%
Elapsed time = 31.68 sec. (43322.34 ticks, tree = 24.02 MB, solutions = 27)
  68029 49170   2.82687e+07    21   2.83560e+07   2.80999e+07  1033254    0.90%
  68030 49169        cutoff         2.83560e+07   2.80999e+07  1033257    0.90%
  68031 49169   2.83404e+07    16   2.83560e+07   2.80999e+07  1033270    0.90%
  68032 49168        cutoff         2.83560e+07   2.80999e+07  1033272    0.90%
  68033 49169   2.80999e+07    27   2.83560e+07   2.80999e+07  1033333    0.90%
  68034 49170   2.80999e+07    39   2.83560e+07   2.80999e+07  1033448    0.90%
  68035 49171   2.80999e+07    25   2.83560e+07   2.80999e+07  1033516    0.90%
  68036 49172   2.80999e+07    26   2.83560e+07   2.80999e+07  1033535    0.90%
  68037 49173   2.80999e+07    25   2.83560e+07   2.80999e+07  1033539    0.90%
  68038 49174   2.80999e+07    23   2.83560e+07   2.80999e+07  1033616    0.90%
Elapsed time = 35.26 sec. (47155.01 ticks, tree = 25.84 MB, solutions = 27)
  73010 53328   2.80999e+07    37   2.83560e+07   2.80999e+07  1118984    0.90%
  73011 53329   2.80999e+07    32   2.83560e+07   2.80999e+07  1119005    0.90%
  73012 53330   2.80999e+07    31   2.83560e+07   2.80999e+07  1119008    0.90%
  73013 53331   2.81232e+07    32   2.83560e+07   2.80999e+07  1119056    0.90%
  73014 53332   2.81239e+07    31   2.83560e+07   2.80999e+07  1119061    0.90%
  73015 53333   2.81331e+07    31   2.83560e+07   2.80999e+07  1119075    0.90%
  73016 53334   2.81369e+07    29   2.83560e+07   2.80999e+07  1119080    0.90%
  73017 53335   2.81369e+07    28   2.83560e+07   2.80999e+07  1119081    0.90%
  73018 53336   2.81414e+07    29   2.83560e+07   2.80999e+07  1119087    0.90%
  73019 53337   2.81414e+07    31   2.83560e+07   2.80999e+07  1119088    0.90%
Elapsed time = 38.80 sec. (50975.19 ticks, tree = 27.86 MB, solutions = 27)
  77761 57128   2.80999e+07    41   2.83560e+07   2.80999e+07  1203732    0.90%
  77762 57129   2.80999e+07    40   2.83560e+07   2.80999e+07  1203741    0.90%
  77763 57130   2.80999e+07    39   2.83560e+07   2.80999e+07  1203742    0.90%
  77764 57131   2.80999e+07    38   2.83560e+07   2.80999e+07  1203746    0.90%
  77765 57132   2.80999e+07    45   2.83560e+07   2.80999e+07  1203769    0.90%
  77766 57133   2.80999e+07    46   2.83560e+07   2.80999e+07  1203773    0.90%
  77767 57134   2.80999e+07    46   2.83560e+07   2.80999e+07  1203774    0.90%
  77768 57135   2.80999e+07    43   2.83560e+07   2.80999e+07  1203775    0.90%
  77769 57136   2.80999e+07    41   2.83560e+07   2.80999e+07  1203776    0.90%
  77770 57137   2.80999e+07    40   2.83560e+07   2.80999e+07  1203778    0.90%
Elapsed time = 42.40 sec. (54792.60 ticks, tree = 29.71 MB, solutions = 27)
* 79411+57840                       2.83355e+07   2.80999e+07             0.83%
* 79711+57738                       2.83279e+07   2.80999e+07             0.80%
* 79811+53150                       2.82527e+07   2.80999e+07             0.54%
* 79911+51129                       2.82260e+07   2.80999e+07             0.45%
  81620 52457   2.81897e+07    27   2.82260e+07   2.80999e+07  1278988    0.45%
  81621 52458   2.81897e+07    27   2.82260e+07   2.80999e+07  1278989    0.45%
  81622 52459   2.81928e+07    20   2.82260e+07   2.80999e+07  1278991    0.45%
  81623 52459   2.82001e+07    21   2.82260e+07   2.80999e+07  1278992    0.45%
  81624 52460   2.82021e+07    24   2.82260e+07   2.80999e+07  1278995    0.45%
  81625 52460   2.82041e+07    26   2.82260e+07   2.80999e+07  1278997    0.45%
  81626 52459        cutoff         2.82260e+07   2.80999e+07  1278999    0.45%
  81627 52459   2.81494e+07    22   2.82260e+07   2.80999e+07  1279125    0.45%
  81628 52458        cutoff         2.82260e+07   2.80999e+07  1279140    0.45%
  81629 52457        cutoff         2.82260e+07   2.80999e+07  1279206    0.45%
Elapsed time = 45.95 sec. (58615.59 ticks, tree = 27.19 MB, solutions = 31)
  86010 55714   2.81850e+07    30   2.82260e+07   2.80999e+07  1368428    0.45%
  86011 55715   2.80999e+07    28   2.82260e+07   2.80999e+07  1368429    0.45%
  86012 55716   2.80999e+07    33   2.82260e+07   2.80999e+07  1368456    0.45%
  86013 55717   2.80999e+07    35   2.82260e+07   2.80999e+07  1368532    0.45%
  86014 55716        cutoff         2.82260e+07   2.80999e+07  1368557    0.45%
  86015 55717   2.81078e+07    36   2.82260e+07   2.80999e+07  1368581    0.45%
  86016 55718   2.81086e+07    36   2.82260e+07   2.80999e+07  1368583    0.45%
  86017 55719   2.81112e+07    38   2.82260e+07   2.80999e+07  1368588    0.45%
  86018 55720   2.81416e+07    36   2.82260e+07   2.80999e+07  1368606    0.45%
  86019 55719        cutoff         2.82260e+07   2.80999e+07  1368636    0.45%
Elapsed time = 49.55 sec. (62448.18 ticks, tree = 28.79 MB, solutions = 31)
  90146 59027        cutoff         2.82260e+07   2.80999e+07  1454708    0.45%
  90147 59026        cutoff         2.82260e+07   2.80999e+07  1454826    0.45%
  90148 59027   2.80999e+07    30   2.82260e+07   2.80999e+07  1454927    0.45%
  90149 59028   2.80999e+07    31   2.82260e+07   2.80999e+07  1454943    0.45%
  90150 59029   2.80999e+07    27   2.82260e+07   2.80999e+07  1455011    0.45%
  90151 59030   2.81038e+07    35   2.82260e+07   2.80999e+07  1455157    0.45%
  90152 59031   2.81038e+07    37   2.82260e+07   2.80999e+07  1455158    0.45%
  90153 59032   2.81038e+07    39   2.82260e+07   2.80999e+07  1455159    0.45%
  90154 59033   2.81038e+07    36   2.82260e+07   2.80999e+07  1455161    0.45%
  90155 59034   2.81039e+07    29   2.82260e+07   2.80999e+07  1455162    0.45%
Elapsed time = 53.12 sec. (66282.42 ticks, tree = 30.41 MB, solutions = 31)
  94322 62068   2.80999e+07    27   2.82260e+07   2.80999e+07  1542726    0.45%
  94323 62069   2.80999e+07    26   2.82260e+07   2.80999e+07  1542727    0.45%
  94324 62070   2.81969e+07    24   2.82260e+07   2.80999e+07  1542736    0.45%
  94325 62069    infeasible         2.82260e+07   2.80999e+07  1542736    0.45%
  94326 62068    infeasible         2.82260e+07   2.80999e+07  1542736    0.45%
  94327 62067        cutoff         2.82260e+07   2.80999e+07  1542775    0.45%
  94328 62066        cutoff         2.82260e+07   2.80999e+07  1542885    0.45%
  94329 62065        cutoff         2.82260e+07   2.80999e+07  1542993    0.45%
  94330 62064        cutoff         2.82260e+07   2.80999e+07  1543093    0.45%
  94331 62064   2.82154e+07    24   2.82260e+07   2.80999e+07  1543271    0.45%
Elapsed time = 56.74 sec. (70115.37 ticks, tree = 31.89 MB, solutions = 31)
  98093 64768   2.80999e+07    31   2.82260e+07   2.80999e+07  1627163    0.45%
  98094 64769   2.80999e+07    25   2.82260e+07   2.80999e+07  1627196    0.45%
  98095 64770   2.80999e+07    30   2.82260e+07   2.80999e+07  1627214    0.45%
  98096 64771   2.80999e+07    35   2.82260e+07   2.80999e+07  1627310    0.45%
  98097 64772   2.80999e+07    34   2.82260e+07   2.80999e+07  1627321    0.45%
  98098 64773   2.80999e+07    33   2.82260e+07   2.80999e+07  1627325    0.45%
  98099 64772        cutoff         2.82260e+07   2.80999e+07  1627390    0.45%
  98100 64773   2.80999e+07    25   2.82260e+07   2.80999e+07  1627466    0.45%
  98101 64774   2.80999e+07    27   2.82260e+07   2.80999e+07  1627469    0.45%
  98102 64775   2.80999e+07    26   2.82260e+07   2.80999e+07  1627499    0.45%
Elapsed time = 60.34 sec. (73943.66 ticks, tree = 33.20 MB, solutions = 31)
 102505 67956   2.80999e+07    24   2.82260e+07   2.80999e+07  1716593    0.45%
 102506 67957   2.80999e+07    25   2.82260e+07   2.80999e+07  1716617    0.45%
 102507 67958   2.80999e+07    26   2.82260e+07   2.80999e+07  1716651    0.45%
 102508 67959   2.80999e+07    24   2.82260e+07   2.80999e+07  1716652    0.45%
 102509 67960   2.80999e+07    22   2.82260e+07   2.80999e+07  1716659    0.45%
 102510 67961   2.80999e+07    26   2.82260e+07   2.80999e+07  1716724    0.45%
 102511 67962   2.80999e+07    27   2.82260e+07   2.80999e+07  1716743    0.45%
 102512 67963   2.80999e+07    27   2.82260e+07   2.80999e+07  1716756    0.45%
 102513 67964   2.80999e+07    26   2.82260e+07   2.80999e+07  1716758    0.45%
 102514 67965   2.80999e+07    28   2.82260e+07   2.80999e+07  1716823    0.45%
Elapsed time = 63.96 sec. (77771.16 ticks, tree = 36.69 MB, solutions = 31)
 106771 71182   2.81258e+07    31   2.82260e+07   2.80999e+07  1804242    0.45%
 106772 71183   2.81548e+07    28   2.82260e+07   2.80999e+07  1804263    0.45%
 106773 71182        cutoff         2.82260e+07   2.80999e+07  1804269    0.45%
 106774 71181        cutoff         2.82260e+07   2.80999e+07  1804275    0.45%
 106775 71182   2.80999e+07    30   2.82260e+07   2.80999e+07  1804382    0.45%
 106776 71183   2.80999e+07    32   2.82260e+07   2.80999e+07  1804385    0.45%
 106777 71184   2.80999e+07    32   2.82260e+07   2.80999e+07  1804388    0.45%
 106778 71185   2.80999e+07    32   2.82260e+07   2.80999e+07  1804389    0.45%
 106779 71186   2.80999e+07    32   2.82260e+07   2.80999e+07  1804392    0.45%
 106780 71187   2.80999e+07    31   2.82260e+07   2.80999e+07  1804406    0.45%
Elapsed time = 67.51 sec. (81598.55 ticks, tree = 38.27 MB, solutions = 31)
 111212 74638   2.81393e+07    38   2.82260e+07   2.80999e+07  1889713    0.45%
 111213 74639   2.81403e+07    32   2.82260e+07   2.80999e+07  1889717    0.45%
 111214 74640   2.81404e+07    32   2.82260e+07   2.80999e+07  1889719    0.45%
 111215 74641   2.81404e+07    32   2.82260e+07   2.80999e+07  1889720    0.45%
 111216 74642   2.81409e+07    32   2.82260e+07   2.80999e+07  1889721    0.45%
 111217 74643   2.81472e+07    37   2.82260e+07   2.80999e+07  1889731    0.45%
 111218 74644   2.81474e+07    40   2.82260e+07   2.80999e+07  1889732    0.45%
 111219 74645   2.81475e+07    40   2.82260e+07   2.80999e+07  1889733    0.45%
 111220 74646   2.81480e+07    38   2.82260e+07   2.80999e+07  1889736    0.45%
 111221 74646   2.81504e+07    36   2.82260e+07   2.80999e+07  1889739    0.45%
Elapsed time = 71.09 sec. (85415.75 ticks, tree = 39.96 MB, solutions = 31)
 115547 78002        cutoff         2.82260e+07   2.80999e+07  1978930    0.45%
 115548 78003   2.81118e+07    40   2.82260e+07   2.80999e+07  1979070    0.45%
 115549 78004   2.81122e+07    41   2.82260e+07   2.80999e+07  1979079    0.45%
 115550 78005   2.81140e+07    46   2.82260e+07   2.80999e+07  1979089    0.45%
 115551 78006   2.81146e+07    42   2.82260e+07   2.80999e+07  1979111    0.45%
 115552 78007   2.81148e+07    44   2.82260e+07   2.80999e+07  1979116    0.45%
 115553 78008   2.81156e+07    43   2.82260e+07   2.80999e+07  1979119    0.45%
 115554 78009   2.81161e+07    45   2.82260e+07   2.80999e+07  1979123    0.45%
 115555 78010   2.81162e+07    47   2.82260e+07   2.80999e+07  1979127    0.45%
 115556 78011   2.81162e+07    43   2.82260e+07   2.80999e+07  1979129    0.45%
Elapsed time = 74.68 sec. (89241.33 ticks, tree = 41.58 MB, solutions = 31)
 119711 81077   2.80999e+07    23   2.82260e+07   2.80999e+07  2063679    0.45%
 119712 81078   2.80999e+07    20   2.82260e+07   2.80999e+07  2063703    0.45%
 119713 81079   2.80999e+07    19   2.82260e+07   2.80999e+07  2063706    0.45%
 119714 81080   2.80999e+07    17   2.82260e+07   2.80999e+07  2063716    0.45%
 119715 81081   2.80999e+07    21   2.82260e+07   2.80999e+07  2063796    0.45%
 119716 81082   2.80999e+07    22   2.82260e+07   2.80999e+07  2063809    0.45%
 119717 81083   2.81140e+07    30   2.82260e+07   2.80999e+07  2063857    0.45%
 119718 81082        cutoff         2.82260e+07   2.80999e+07  2063871    0.45%
 119719 81083   2.81255e+07    30   2.82260e+07   2.80999e+07  2063877    0.45%
 119720 81084   2.81260e+07    33   2.82260e+07   2.80999e+07  2063880    0.45%
Elapsed time = 78.27 sec. (93064.05 ticks, tree = 43.07 MB, solutions = 31)
 124381 84678   2.80999e+07    27   2.82260e+07   2.80999e+07  2151047    0.45%
 124382 84679   2.80999e+07    28   2.82260e+07   2.80999e+07  2151123    0.45%
 124383 84680   2.80999e+07    27   2.82260e+07   2.80999e+07  2151124    0.45%
 124384 84681   2.80999e+07    43   2.82260e+07   2.80999e+07  2151271    0.45%
 124385 84682   2.80999e+07    42   2.82260e+07   2.80999e+07  2151278    0.45%
 124386 84683   2.80999e+07    39   2.82260e+07   2.80999e+07  2151292    0.45%
 124387 84684   2.80999e+07    35   2.82260e+07   2.80999e+07  2151320    0.45%
 124388 84685   2.80999e+07    35   2.82260e+07   2.80999e+07  2151324    0.45%
 124389 84686   2.80999e+07    32   2.82260e+07   2.80999e+07  2151342    0.45%
 124390 84687   2.80999e+07    33   2.82260e+07   2.80999e+07  2151385    0.45%
Elapsed time = 81.86 sec. (96890.34 ticks, tree = 44.82 MB, solutions = 31)
 128796 87347   2.80999e+07    25   2.82260e+07   2.80999e+07  2237619    0.45%
 128797 87348   2.80999e+07    29   2.82260e+07   2.80999e+07  2237650    0.45%
 128798 87349   2.80999e+07    29   2.82260e+07   2.80999e+07  2237661    0.45%
 128799 87350   2.80999e+07    30   2.82260e+07   2.80999e+07  2237662    0.45%
 128800 87351   2.80999e+07    30   2.82260e+07   2.80999e+07  2237664    0.45%
 128801 87352   2.80999e+07    28   2.82260e+07   2.80999e+07  2237667    0.45%
 128802 87353   2.80999e+07    34   2.82260e+07   2.80999e+07  2237673    0.45%
 128803 87354   2.80999e+07    34   2.82260e+07   2.80999e+07  2237674    0.45%
 128804 87355   2.80999e+07    34   2.82260e+07   2.80999e+07  2237684    0.45%
 128805 87356   2.81058e+07    33   2.82260e+07   2.80999e+07  2237703    0.45%
Elapsed time = 85.70 sec. (100713.61 ticks, tree = 46.17 MB, solutions = 31)
 133479 90959   2.80999e+07    24   2.82260e+07   2.80999e+07  2327600    0.45%
 133480 90960   2.80999e+07    25   2.82260e+07   2.80999e+07  2327615    0.45%
 133481 90961   2.80999e+07    26   2.82260e+07   2.80999e+07  2327622    0.45%
 133482 90962   2.80999e+07    25   2.82260e+07   2.80999e+07  2327625    0.45%
 133483 90963   2.80999e+07    25   2.82260e+07   2.80999e+07  2327634    0.45%
 133484 90964   2.80999e+07    25   2.82260e+07   2.80999e+07  2327641    0.45%
 133485 90965   2.80999e+07    24   2.82260e+07   2.80999e+07  2327646    0.45%
 133486 90966   2.80999e+07    25   2.82260e+07   2.80999e+07  2327654    0.45%
 133487 90967   2.80999e+07    27   2.82260e+07   2.80999e+07  2327658    0.45%
 133488 90968   2.80999e+07    27   2.82260e+07   2.80999e+07  2327676    0.45%
Elapsed time = 89.31 sec. (104531.77 ticks, tree = 47.93 MB, solutions = 31)
 136711 93472   2.80999e+07    28   2.82260e+07   2.80999e+07  2390532    0.45%
 136712 93473   2.80999e+07    27   2.82260e+07   2.80999e+07  2390533    0.45%
 136713 93474   2.80999e+07    25   2.82260e+07   2.80999e+07  2390537    0.45%
 136714 93475   2.80999e+07    25   2.82260e+07   2.80999e+07  2390538    0.45%
 136715 93476   2.80999e+07    25   2.82260e+07   2.80999e+07  2390539    0.45%
 136716 93477   2.81013e+07    27   2.82260e+07   2.80999e+07  2390547    0.45%
 136717 93478   2.81013e+07    27   2.82260e+07   2.80999e+07  2390548    0.45%
 136718 93479   2.81148e+07    27   2.82260e+07   2.80999e+07  2390549    0.45%
 136719 93480   2.81167e+07    27   2.82260e+07   2.80999e+07  2390550    0.45%
 136720 93481   2.81183e+07    27   2.82260e+07   2.80999e+07  2390551    0.45%
Elapsed time = 92.93 sec. (108585.90 ticks, tree = 49.15 MB, solutions = 31)
 138941 95141   2.80999e+07    21   2.82260e+07   2.80999e+07  2438397    0.45%
 138942 95142   2.80999e+07    25   2.82260e+07   2.80999e+07  2438415    0.45%
 138943 95143   2.80999e+07    25   2.82260e+07   2.80999e+07  2438417    0.45%
 138944 95144   2.80999e+07    25   2.82260e+07   2.80999e+07  2438418    0.45%
 138945 95145   2.80999e+07    26   2.82260e+07   2.80999e+07  2438423    0.45%
 138946 95146   2.80999e+07    23   2.82260e+07   2.80999e+07  2438435    0.45%
 138947 95147   2.80999e+07    30   2.82260e+07   2.80999e+07  2438502    0.45%
 138948 95148   2.80999e+07    24   2.82260e+07   2.80999e+07  2438528    0.45%
 138949 95149   2.80999e+07    27   2.82260e+07   2.80999e+07  2438566    0.45%
 138950 95150   2.80999e+07    25   2.82260e+07   2.80999e+07  2438568    0.45%
Elapsed time = 96.23 sec. (112406.64 ticks, tree = 49.96 MB, solutions = 31)
 142009 97452   2.80999e+07    28   2.82260e+07   2.80999e+07  2503332    0.45%
 142010 97453   2.80999e+07    25   2.82260e+07   2.80999e+07  2503341    0.45%
 142011 97454   2.80999e+07    26   2.82260e+07   2.80999e+07  2503347    0.45%
 142012 97455   2.80999e+07    26   2.82260e+07   2.80999e+07  2503354    0.45%
 142013 97456   2.80999e+07    25   2.82260e+07   2.80999e+07  2503355    0.45%
 142014 97457   2.80999e+07    25   2.82260e+07   2.80999e+07  2503358    0.45%
 142015 97458   2.80999e+07    27   2.82260e+07   2.80999e+07  2503382    0.45%
 142016 97459   2.80999e+07    30   2.82260e+07   2.80999e+07  2503419    0.45%
 142017 97460   2.80999e+07    28   2.82260e+07   2.80999e+07  2503436    0.45%
 142018 97461   2.80999e+07    26   2.82260e+07   2.80999e+07  2503438    0.45%
Elapsed time = 99.65 sec. (116225.48 ticks, tree = 51.07 MB, solutions = 31)

Cover cuts applied:  349
Mixed integer rounding cuts applied:  7
Zero-half cuts applied:  1
Gomory fractional cuts applied:  9

Root node processing (before b&c):
  Real time             =    0.04 sec. (43.43 ticks)
Sequential b&c:
  Real time             =   99.96 sec. (116582.23 ticks)
                          ------------
Total (root+branch&cut) =  100.00 sec. (116625.66 ticks)

Solution pool: 31 solutions saved.

MIP - Time limit exceeded, integer feasible:  Objective =  2.8225984000e+07
Current MIP best bound =  2.8099855000e+07 (gap = 126129, 0.45%)
Solution time =  100.00 sec.  Iterations = 2512710  Nodes = 142524 (97868)
Deterministic time = 116625.67 ticks  (1166.25 ticks/sec)


Incumbent solution written to file '/tmp/tmpg2LqIQ.cplex.sol'.
